
--- Run: 2026-06-01 00:27:08.009604 ---
[INFO] Running 7 files: and.lp input.lp or.lp output.lp xor.lp main.lp preview.lp

clingo version 5.8.0
Reading from ...al_networks_editor/C-MCPN/gates/and.lp ...
Solving...
Answer: 1 (Time: 0.003s)
val("INPUT_1",1) val("INPUT_2",1) val("INPUT_Carry",0) val("INPUT_1",0) val("INPUT_2",0) val("INPUT_Carry",1) val("AND_1",0) val("XOR_1",0) val("XOR_1",1) val("AND_1",1) val("AND_2",0) val("AND_2",1) val("XOR_2",1) val("XOR_2",0) val("OR_1",1) val("OR_1",0) val("OUTPUT_1",0) val("OUTPUT_1",1) val("OUTPUT_Carry",0) val("OUTPUT_Carry",1)
SATISFIABLE

Models       : 1+
Calls        : 1
Time         : 0.003s (Solving: 0.00s 1st Model: 0.00s Unsat: 0.00s)
CPU Time     : 0.002s

--- Run: 2026-06-01 00:27:36.365580 ---
[INFO] Running 7 files: and.lp input.lp or.lp output.lp xor.lp main.lp preview.lp

clingo version 5.8.0
Reading from ...al_networks_editor/C-MCPN/gates/and.lp ...
Solving...
Answer: 1 (Time: 0.007s)
val("INPUT_1",1) val("INPUT_2",1) val("INPUT_Carry",0) val("INPUT_1",0) val("INPUT_2",0) val("INPUT_Carry",1) val("AND_1",0) val("XOR_1",0) val("XOR_1",1) val("AND_1",1) val("AND_2",0) val("AND_2",1) val("XOR_2",1) val("XOR_2",0) val("OR_1",1) val("OR_1",0) val("OUTPUT_1",0) val("OUTPUT_1",1) val("OUTPUT_Carry",0) val("OUTPUT_Carry",1)
SATISFIABLE

Models       : 1+
Calls        : 1
Time         : 0.007s (Solving: 0.00s 1st Model: 0.00s Unsat: 0.00s)
CPU Time     : 0.002s

--- Run: 2026-06-01 00:30:45.769798 ---
[INFO] Running 7 files: and.lp input.lp or.lp output.lp xor.lp main.lp preview.lp

clingo version 5.8.0
Reading from ...al_networks_editor/C-MCPN/gates/and.lp ...
UNKNOWN

Models       : 0+
Calls        : 1
Time         : 0.003s (Solving: 0.00s 1st Model: 0.00s Unsat: 0.00s)
CPU Time     : 0.001s

--- Run: 2026-06-01 00:31:57.196772 ---
[INFO] Running 7 files: and.lp input.lp or.lp output.lp xor.lp main.lp preview.lp

clingo version 5.8.0
Reading from ...al_networks_editor/C-MCPN/gates/and.lp ...
Solving...
UNSATISFIABLE

Models       : 0
Calls        : 1
Time         : 0.005s (Solving: 0.00s 1st Model: 0.00s Unsat: 0.00s)
CPU Time     : 0.003s

--- Run: 2026-06-01 00:34:16.736130 ---
[INFO] Running 7 files: and.lp input.lp or.lp output.lp xor.lp main.lp preview.lp

clingo version 5.8.0
Reading from ...al_networks_editor/C-MCPN/gates/and.lp ...
Solving...
UNSATISFIABLE

Models       : 0
Calls        : 1
Time         : 0.006s (Solving: 0.00s 1st Model: 0.00s Unsat: 0.00s)
CPU Time     : 0.002s

--- Run: 2026-06-01 00:34:18.804894 ---
[INFO] Running 7 files: and.lp input.lp or.lp output.lp xor.lp main.lp preview.lp

clingo version 5.8.0
Reading from ...al_networks_editor/C-MCPN/gates/and.lp ...
Solving...
UNSATISFIABLE

Models       : 0
Calls        : 1
Time         : 0.001s (Solving: 0.00s 1st Model: 0.00s Unsat: 0.00s)
CPU Time     : 0.001s

--- Run: 2026-06-01 00:38:56.005145 ---
[INFO] Running 2 files: main.lp preview.lp

clingo version 5.8.0
Reading from ...al_networks_editor/C-MCPN/base/main.lp ...
Solving...
Answer: 1 (Time: 0.006s)

SATISFIABLE

Models       : 1
Calls        : 1
Time         : 0.006s (Solving: 0.00s 1st Model: 0.00s Unsat: 0.00s)
CPU Time     : 0.002s

--- Run: 2026-06-01 00:39:21.985478 ---
[INFO] Running 7 files: and.lp input.lp or.lp output.lp xor.lp main.lp preview.lp

clingo version 5.8.0
Reading from ...al_networks_editor/C-MCPN/gates/and.lp ...
Solving...
UNSATISFIABLE

Models       : 0
Calls        : 1
Time         : 0.003s (Solving: 0.00s 1st Model: 0.00s Unsat: 0.00s)
CPU Time     : 0.002s

--- Run: 2026-06-01 00:46:27.318558 ---
[INFO] Running 7 files: and.lp input.lp or.lp output.lp xor.lp main.lp preview.lp

clingo version 5.8.0
Reading from ...al_networks_editor/C-MCPN/gates/and.lp ...
Solving...
UNSATISFIABLE

Models       : 0
Calls        : 1
Time         : 0.004s (Solving: 0.00s 1st Model: 0.00s Unsat: 0.00s)
CPU Time     : 0.002s

--- Run: 2026-06-01 00:46:47.237181 ---
[INFO] Running 7 files: and.lp input.lp or.lp output.lp xor.lp main.lp preview.lp

clingo version 5.8.0
Reading from ...al_networks_editor/C-MCPN/gates/and.lp ...
Solving...
Answer: 1 (Time: 0.001s)
val("INPUT_1",1) val("INPUT_2",1) val("INPUT_Carry",0) val("INPUT_1",0) val("XOR_1",0) val("AND_1",0) val("INPUT_2",0) val("XOR_2",0) val("AND_2",0) val("OUTPUT_1",0) val("XOR_1",1) val("AND_1",1) val("XOR_2",1) val("AND_2",1) val("OUTPUT_1",1) val("INPUT_Carry",1) val("OR_1",1) val("OR_1",0) val("OUTPUT_Carry",1) val("OUTPUT_Carry",0)
SATISFIABLE

Models       : 1+
Calls        : 1
Time         : 0.001s (Solving: 0.00s 1st Model: 0.00s Unsat: 0.00s)
CPU Time     : 0.001s

--- Run: 2026-06-01 00:53:41.433283 ---
[INFO] Running 7 files: and.lp input.lp or.lp output.lp xor.lp main.lp preview.lp

clingo version 5.8.0
Reading from ...al_networks_editor/C-MCPN/gates/and.lp ...
Solving...
Answer: 1 (Time: 0.008s)
val("INPUT_1",1) val("INPUT_2",1) val("INPUT_Carry",0) val("AND_2",0) val("XOR_2",0) val("AND_1",1) val("XOR_1",0) val("OR_1",1) val("OR_1",0)
SATISFIABLE

Models       : 1+
Calls        : 1
Time         : 0.008s (Solving: 0.00s 1st Model: 0.00s Unsat: 0.00s)
CPU Time     : 0.002s

--- Run: 2026-06-01 00:54:25.422300 ---
[INFO] Running 7 files: and.lp input.lp or.lp output.lp xor.lp main.lp preview.lp

clingo version 5.8.0
Reading from ...al_networks_editor/C-MCPN/gates/and.lp ...
Solving...
Answer: 1 (Time: 0.001s)
val("INPUT_1",1) val("INPUT_2",1) val("INPUT_Carry",0) val("INPUT_1",0) val("INPUT_2",0) val("INPUT_Carry",1) val("AND_2",0) val("AND_2",1) val("XOR_2",1) val("XOR_2",0) val("AND_1",0) val("XOR_1",0) val("XOR_1",1) val("AND_1",1) val("OR_1",1) val("OR_1",0)
SATISFIABLE

Models       : 1+
Calls        : 1
Time         : 0.001s (Solving: 0.00s 1st Model: 0.00s Unsat: 0.00s)
CPU Time     : 0.001s

--- Run: 2026-06-01 00:54:54.868575 ---
[INFO] Running 7 files: and.lp input.lp or.lp output.lp xor.lp main.lp preview.lp

clingo version 5.8.0
Reading from ...al_networks_editor/C-MCPN/gates/and.lp ...
Solving...
UNSATISFIABLE

Models       : 0
Calls        : 1
Time         : 0.001s (Solving: 0.00s 1st Model: 0.00s Unsat: 0.00s)
CPU Time     : 0.001s

--- Run: 2026-06-01 00:58:59.154909 ---
[INFO] Running 7 files: and.lp input.lp or.lp output.lp xor.lp main.lp preview.lp

clingo version 5.8.0
Reading from ...al_networks_editor/C-MCPN/gates/and.lp ...
Solving...
UNSATISFIABLE

Models       : 0
Calls        : 1
Time         : 0.006s (Solving: 0.00s 1st Model: 0.00s Unsat: 0.00s)
CPU Time     : 0.003s

--- Run: 2026-06-01 00:59:00.780398 ---
[INFO] Running 7 files: and.lp input.lp or.lp output.lp xor.lp main.lp preview.lp

clingo version 5.8.0
Reading from ...al_networks_editor/C-MCPN/gates/and.lp ...
Solving...
UNSATISFIABLE

Models       : 0
Calls        : 1
Time         : 0.001s (Solving: 0.00s 1st Model: 0.00s Unsat: 0.00s)
CPU Time     : 0.001s

--- Run: 2026-06-01 01:01:13.311521 ---
[INFO] Running 7 files: and.lp input.lp or.lp output.lp xor.lp main.lp preview.lp

clingo version 5.8.0
Reading from ...al_networks_editor/C-MCPN/gates/and.lp ...
Solving...
Answer: 1 (Time: 0.005s)
edge("INPUT_1","XOR_1") edge("INPUT_1","AND_1") edge("INPUT_2","XOR_1") edge("INPUT_2","AND_1") edge("INPUT_Carry","XOR_2") edge("INPUT_Carry","AND_2") edge("XOR_1","XOR_2") edge("XOR_1","AND_2") edge("AND_1","OR_1") edge("AND_2","OR_1") edge("XOR_2","OUTPUT_1") edge("OR_1","OUTPUT_Carry")
SATISFIABLE

Models       : 1+
Calls        : 1
Time         : 0.005s (Solving: 0.00s 1st Model: 0.00s Unsat: 0.00s)
CPU Time     : 0.003s

--- Run: 2026-06-01 01:04:29.266204 ---
[INFO] Running 7 files: and.lp input.lp or.lp output.lp xor.lp main.lp preview.lp

clingo version 5.8.0
Reading from ...al_networks_editor/C-MCPN/gates/and.lp ...
Solving...
Answer: 1 (Time: 0.009s)
edge("INPUT_1","XOR_1") edge("INPUT_1","AND_1") edge("INPUT_2","XOR_1") edge("INPUT_2","AND_1") edge("INPUT_Carry","XOR_2") edge("INPUT_Carry","AND_2") edge("XOR_1","XOR_2") edge("XOR_1","AND_2") edge("AND_1","OR_1") edge("AND_2","OR_1") edge("XOR_2","OUTPUT_1") edge("OR_1","OUTPUT_Carry")
SATISFIABLE

Models       : 1+
Calls        : 1
Time         : 0.009s (Solving: 0.00s 1st Model: 0.00s Unsat: 0.00s)
CPU Time     : 0.003s

--- Run: 2026-06-01 01:04:40.940829 ---
[INFO] Running 7 files: and.lp input.lp or.lp output.lp xor.lp main.lp preview.lp

clingo version 5.8.0
Reading from ...al_networks_editor/C-MCPN/gates/and.lp ...
Solving...
Answer: 1 (Time: 0.001s)
edge("INPUT_1","XOR_1") edge("INPUT_1","AND_1") edge("INPUT_2","XOR_1") edge("INPUT_2","AND_1") edge("INPUT_Carry","XOR_2") edge("INPUT_Carry","AND_2") edge("XOR_1","XOR_2") edge("XOR_1","AND_2") edge("AND_1","OR_1") edge("AND_2","OR_1") edge("XOR_2","OUTPUT_1") edge("OR_1","OUTPUT_Carry")
SATISFIABLE

Models       : 1+
Calls        : 1
Time         : 0.001s (Solving: 0.00s 1st Model: 0.00s Unsat: 0.00s)
CPU Time     : 0.001s

--- Run: 2026-06-01 01:05:11.514547 ---
[INFO] Running 7 files: and.lp input.lp or.lp output.lp xor.lp main.lp preview.lp

clingo version 5.8.0
Reading from ...al_networks_editor/C-MCPN/gates/and.lp ...
Solving...
Answer: 1 (Time: 0.008s)
val("INPUT_1",1) val("INPUT_2",1) val("INPUT_Carry",0) val("INPUT_1",0) val("INPUT_2",0) val("INPUT_Carry",1) val("AND_2",0) val("AND_2",1) val("XOR_2",1) val("XOR_2",0) val("AND_1",0) val("XOR_1",0) val("XOR_1",1) val("AND_1",1) val("OR_1",1) val("OR_1",0)
SATISFIABLE

Models       : 1+
Calls        : 1
Time         : 0.008s (Solving: 0.00s 1st Model: 0.00s Unsat: 0.00s)
CPU Time     : 0.002s

--- Run: 2026-06-01 01:11:34.243001 ---
[INFO] Running 7 files: and.lp input.lp or.lp output.lp xor.lp main.lp preview.lp

clingo version 5.8.0
Reading from ...al_networks_editor/C-MCPN/gates/and.lp ...
Solving...
UNSATISFIABLE

Models       : 0
Calls        : 1
Time         : 0.004s (Solving: 0.00s 1st Model: 0.00s Unsat: 0.00s)
CPU Time     : 0.002s
